NAME: random-18-27942
TYPE: TSP
COMMENT: size=18 seed=27942
DIMENSION: 38
EDGE_WEIGHT_TYPE: EUC_2D
NODE_COORD_SECTION
+0 194 833
-0 194 833
+1 818 878
-1 290 780
+2 406 179
-2 875 519
+3 418 562
-3 783 226
+4 843 613
-4 969 555
+5 171 915
-5 199 188
+6 499 105
-6 115 539
+7 591 546
-7 282 933
+8 853 592
-8 171 649
+9 199 13
-9 341 806
+10 320 286
-10 982 162
+11 882 380
-11 873 882
+12 608 776
-12 143 970
+13 915 641
-13 670 736
+14 490 578
-14 225 902
+15 905 613
-15 536 250
+16 46 632
-16 242 191
+17 922 66
-17 186 851
+18 96 395
-18 936 669
PRECEDENCE_SECTION
+0 -0
+1 -1
+2 -2
+3 -3
+4 -4
+5 -5
+6 -6
+7 -7
+8 -8
+9 -9
+10 -10
+11 -11
+12 -12
+13 -13
+14 -14
+15 -15
+16 -16
+17 -17
+18 -18
EOF
